(set-logic QF_FPABV)
(declare-fun b35 () (_ FP 8 24))
(declare-fun b11 () (_ FP 8 24))
(declare-fun b17 () (_ FP 8 24))
(declare-fun b20 () (_ FP 8 24))
(declare-fun b10 () (_ FP 8 24))
(declare-fun b14 () (_ FP 8 24))
(define-fun .3 () RoundingMode roundNearestTiesToEven)
(define-fun .9 () (_ FP 8 24) b11)
(define-fun .10 () (_ FP 8 24) b20)
(define-fun .11 () Bool (< .9 .10))
(define-fun .12 () (_ FP 8 24) b10)
(define-fun .13 () (_ FP 8 24) (/ .3 .12 .9))
(define-fun .14 () (_ FP 8 24) b14)
(define-fun .15 () (_ FP 8 24) (/ .3 .13 .14))
(define-fun .16 () (_ FP 8 24) b17)
(define-fun .17 () (_ FP 8 24) (/ .3 .15 .16))
(define-fun .18 () Bool (< .17 .10))
(define-fun .19 () Bool (and .11 .18))
(define-fun .20 () (_ FP 8 24) b35)
(define-fun .21 () Bool (< .20 .9))
(define-fun .22 () Bool (and .19 .21))
(define-fun .23 () Bool (< .14 .10))
(define-fun .24 () Bool (and .22 .23))
(define-fun .25 () Bool (< .20 .14))
(define-fun .26 () Bool (and .24 .25))
(define-fun .27 () Bool (< .16 .10))
(define-fun .28 () Bool (and .26 .27))
(define-fun .29 () Bool (< .20 .16))
(define-fun .30 () Bool (and .28 .29))
(assert .30)
(check-sat)
